(set-option :produce-models true)
(set-logic QF_UF)
(declare-fun p28() Bool)
(declare-fun p27() Bool)
(declare-fun p21() Bool)
(declare-fun p13() Bool)
(declare-fun p6() Bool)
(declare-fun p12() Bool)
(declare-fun p25() Bool)
(declare-fun p5() Bool)
(declare-fun p24() Bool)
(declare-fun p11() Bool)
(declare-fun p0() Bool)
(declare-fun p29() Bool)
(declare-fun p10() Bool)
(declare-fun p18() Bool)
(declare-fun p1() Bool)
(declare-fun p20() Bool)
(declare-fun p22() Bool)
(declare-fun p17() Bool)
(declare-fun p23() Bool)
(declare-fun p2() Bool)
(declare-fun p8() Bool)
(declare-fun p3() Bool)
(declare-fun p4() Bool)
(declare-fun p15() Bool)
(declare-fun p26() Bool)
(declare-fun p14() Bool)
(declare-fun p9() Bool)
(declare-fun p19() Bool)
(declare-fun p7() Bool)
(declare-fun p16() Bool)
(assert
(and (or p28 (not p27) (not p21)) (or p13 (not p6) p12) (or p25 (not p5) p24) (or (not p11) p24 p0) (or (not p25) (not p25) p29) (or p13 (not p10) p18) (or p1 (not p29) (not p20)) (or (not p22) p17 p22) (or (not p1) (not p11) (not p29)) (or (not p10) (not p6) p13) (or p23 p25 (not p29)) (or (not p2) p8 (not p17)) (or p18 p10 p3) (or p4 (not p15) (not p17)) (or p26 p0 p23) (or (not p14) (not p15) (not p12)) (or p6 (not p2) p29) (or p11 (not p18) (not p26)) (or (not p9) p13 p24) (or (not p14) p3 p12) (or (not p22) p4 p21) (or (not p19) (not p9) p20) (or p0 (not p7) p27) (or p27 (not p20) (not p0)) (or p9 p6 p8) (or p6 (not p11) p13) (or p13 p4 p10) (or p4 (not p12) p15) (or p9 p7 (not p19)) (or p21 (not p19) (not p17)) (or (not p0) (not p7) p13) (or p8 (not p8) (not p7)) (or p20 p13 (not p25)) (or (not p23) (not p18) p13) (or (not p6) (not p9) (not p11)) (or p25 p19 (not p22)) (or p8 (not p27) (not p0)) (or (not p15) (not p22) (not p21)) (or (not p1) (not p23) p23) (or p25 (not p2) (not p20)) (or (not p7) (not p29) (not p0)) (or (not p5) p24 (not p21)) (or (not p7) p4 (not p26)) (or (not p11) (not p18) p4) (or p11 p25 (not p15)) (or p17 (not p18) (not p22)) (or (not p23) p17 p15) (or p8 (not p16) (not p12)) (or p2 (not p18) (not p13)) (or (not p11) (not p10) (not p4)) (or p26 p24 p29) (or p19 p22 p16) (or p8 (not p21) (not p23)) (or p3 (not p2) (not p14)) (or (not p25) p11 p28) (or p29 (not p23) (not p8)) (or p4 p17 (not p12)) (or (not p2) p19 (not p13)) (or p25 p25 p29) (or (not p28) p8 p16) (or p11 p28 p18) (or (not p21) p22 (not p29)) (or p9 (not p4) (not p1)) (or p3 p8 (not p26)) (or p16 (not p17) p23) (or (not p24) p28 (not p24)) (or p29 (not p25) p18) (or (not p15) p19 (not p4)) (or (not p5) p23 p23) (or (not p24) (not p11) (not p26)) (or p26 p16 (not p25)) (or (not p1) (not p29) (not p3)) (or p25 p18 (not p7)) (or p5 p4 (not p28)) (or p22 (not p20) (not p26)) (or (not p16) (not p25) (not p20)) (or (not p12) p14 (not p18)) (or p20 p18 (not p22)) (or p14 p20 (not p22)) (or (not p8) (not p8) (not p20)) (or (not p15) (not p5) (not p9)) (or (not p6) (not p7) (not p23)) (or p19 (not p10) (not p0)) (or p0 (not p14) (not p27)) (or (not p8) (not p14) (not p29)) (or p24 (not p8) (not p12)) (or p20 p8 (not p26)) (or p18 (not p20) p3) (or (not p19) p27 p19) (or p2 p1 (not p26)) (or (not p27) p26 p13) (or (not p5) (not p29) (not p22)) (or p24 p12 p14) (or (not p12) p2 p25) (or (not p13) (not p25) (not p10)) (or p29 p20 p13) (or p20 (not p29) (not p15)) (or (not p4) p19 p17) (or p12 p20 (not p12)) (or p21 p27 p15) (or (not p26) p13 p21) (or (not p14) (not p17) p9) (or (not p5) p26 (not p13)) (or p6 p13 (not p2)) (or (not p7) (not p17) p22) (or p4 p26 (not p26)) (or (not p15) p8 p24) (or (not p22) p19 p11) (or p20 (not p27) p22) (or p6 p6 (not p2)) (or p16 p25 p26) (or (not p18) p19 (not p16)) (or p4 (not p24) p12) (or p11 (not p16) p13) (or (not p4) (not p4) (not p6)) (or (not p9) (not p6) (not p12)) (or p7 p7 (not p24)) (or (not p26) p21 p9) (or p8 p8 p8) (or (not p11) (not p7) (not p12)) (or (not p15) p1 p22) (or p28 (not p6) (not p19)) (or (not p13) p1 (not p3)) (or (not p4) p16 (not p0)) (or (not p8) p17 (not p10)) (or p14 (not p17) (not p24)) (or p24 p23 (not p28)) (or p29 (not p10) p27))
)
(check-sat)
(get-model)
